79 524
195 110
151 174
157 129
188 375
288 471
290 170
235 292
258 342
379 290
359 200
383 85
393 345
471 424
409 533
482 503
476 293
544 200
599 245
569 285
584 80
648 172
687 480
645 495
600 91
707 203
